500
150 150
1 105 832
2 105 820
3 105 293
4 105 392
5 105 960
6 105 206
7 105 288
8 105 361
9 105 802
10 105 443
11 105 234
12 105 506
13 105 754
14 104 445
15 104 841
16 104 18
17 103 293
18 102 23
19 102 529
20 102 711
21 102 55
22 102 407
23 102 884
24 102 857
25 102 537
26 101 305
27 101 185
28 101 0
29 101 844
30 101 683
31 100 839
32 100 97
33 100 808
34 100 253
35 100 25
36 100 180
37 100 913
38 99 651
39 99 600
40 99 634
41 99 183
42 99 594
43 99 914
44 99 944
45 99 827
46 98 774
47 98 78
48 98 470
49 98 591
50 98 850
51 98 467
52 97 76
53 97 345
54 97 995
55 97 838
56 96 920
57 96 655
58 96 532
59 96 663
60 96 377
61 96 644
62 96 786
63 96 168
64 96 553
65 96 363
66 95 284
67 95 721
68 95 510
69 95 863
70 95 738
71 94 198
72 94 264
73 94 563
74 94 545
75 94 870
76 93 936
77 93 236
78 93 267
79 93 280
80 93 429
81 93 857
82 93 237
83 93 3
84 92 675
85 92 252
86 92 539
87 92 701
88 91 895
89 91 296
90 91 465
91 91 819
92 90 2
93 90 984
94 90 655
95 90 108
96 90 654
97 90 743
98 90 642
99 90 322
100 90 538
101 90 268
102 90 795
103 90 797
104 90 784
105 89 263
106 89 648
107 89 580
108 89 587
109 89 822
110 89 930
111 89 927
112 89 202
113 88 227
114 88 957
115 88 804
116 88 121
117 88 631
118 88 222
119 88 768
120 88 263
121 88 605
122 87 132
123 87 277
124 87 266
125 87 977
126 87 534
127 86 312
128 86 810
129 86 552
130 86 312
131 86 804
132 86 708
133 86 839
134 85 13
135 85 228
136 85 576
137 85 918
138 85 547
139 85 782
140 84 921
141 84 181
142 84 242
143 84 537
144 84 866
145 84 4
146 83 327
147 83 390
148 83 896
149 83 868
150 83 277
151 83 298
152 83 559
153 82 669
154 82 526
155 82 911
156 82 900
157 82 787
158 82 74
159 82 951
160 82 355
161 82 487
162 82 513
163 81 750
164 81 17
165 81 168
166 81 110
167 81 825
168 81 23
169 80 857
170 80 424
171 80 316
172 80 369
173 79 357
174 79 641
175 79 745
176 79 448
177 78 296
178 78 29
179 78 562
180 78 54
181 78 122
182 78 169
183 78 856
184 77 474
185 77 602
186 77 565
187 77 446
188 77 829
189 77 868
190 77 416
191 76 358
192 76 939
193 76 211
194 76 958
195 76 201
196 76 298
197 76 640
198 75 672
199 75 71
200 75 886
201 75 141
202 75 877
203 75 476
204 75 686
205 75 425
206 75 124
207 75 218
208 74 333
209 74 856
210 74 917
211 74 90
212 73 230
213 73 353
214 73 105
215 73 686
216 72 901
217 72 685
218 71 770
219 71 509
220 71 773
221 71 632
222 71 468
223 71 58
224 70 665
225 70 627
226 69 112
227 69 351
228 69 319
229 69 515
230 69 184
231 68 732
232 68 614
233 68 32
234 68 376
235 68 823
236 68 389
237 67 413
238 67 497
239 67 323
240 67 704
241 67 32
242 67 800
243 67 854
244 67 105
245 66 885
246 66 329
247 66 895
248 66 608
249 66 812
250 66 668
251 66 751
252 66 641
253 65 615
254 65 706
255 65 736
256 65 511
257 65 479
258 65 467
259 64 277
260 64 364
261 64 165
262 64 641
263 64 710
264 64 1
265 64 999
266 64 495
267 64 132
268 64 28
269 63 316
270 63 427
271 63 592
272 63 569
273 63 399
274 63 686
275 63 542
276 63 370
277 62 97
278 62 172
279 62 783
280 62 377
281 62 246
282 62 729
283 62 727
284 62 904
285 62 72
286 62 529
287 62 333
288 62 179
289 62 62
290 61 448
291 61 910
292 61 769
293 61 693
294 61 953
295 61 736
296 61 519
297 60 931
298 60 824
299 60 413
300 60 742
301 60 962
302 59 690
303 59 588
304 59 484
305 59 381
306 59 172
307 59 921
308 59 267
309 59 945
310 59 550
311 59 195
312 58 6
313 58 0
314 58 495
315 58 264
316 58 991
317 58 564
318 58 435
319 58 783
320 57 568
321 57 317
322 57 527
323 57 169
324 57 953
325 57 579
326 57 735
327 57 12
328 56 203
329 56 760
330 56 638
331 56 685
332 56 47
333 55 274
334 55 615
335 55 564
336 55 807
337 55 311
338 54 487
339 54 686
340 54 780
341 54 718
342 54 774
343 54 4
344 54 945
345 54 443
346 54 573
347 53 848
348 53 626
349 53 744
350 53 425
351 52 642
352 52 987
353 52 147
354 52 139
355 52 207
356 52 132
357 52 705
358 52 744
359 52 517
360 52 453
361 52 600
362 51 781
363 51 861
364 51 511
365 51 850
366 51 45
367 51 94
368 51 967
369 51 706
370 51 321
371 50 797
372 50 618
373 49 789
374 49 370
375 49 960
376 49 320
377 49 836
378 49 102
379 48 148
380 48 426
381 48 446
382 48 87
383 48 522
384 48 459
385 48 467
386 48 687
387 47 966
388 47 431
389 47 659
390 47 971
391 47 649
392 47 403
393 47 33
394 46 215
395 46 838
396 46 274
397 46 113
398 46 93
399 46 422
400 45 400
401 45 355
402 45 748
403 45 398
404 45 852
405 45 525
406 45 821
407 44 808
408 44 595
409 44 534
410 43 886
411 43 472
412 43 228
413 43 663
414 43 835
415 42 351
416 42 178
417 41 223
418 41 83
419 40 896
420 40 628
421 40 908
422 40 712
423 40 868
424 40 549
425 40 339
426 39 466
427 39 257
428 39 187
429 39 20
430 39 921
431 39 451
432 39 513
433 39 468
434 39 133
435 39 220
436 39 24
437 39 323
438 38 405
439 38 946
440 38 238
441 38 270
442 38 56
443 38 780
444 38 996
445 38 594
446 38 784
447 38 691
448 38 464
449 37 252
450 37 193
451 37 450
452 37 141
453 37 233
454 37 257
455 37 166
456 37 773
457 37 174
458 37 658
459 36 30
460 36 983
461 36 52
462 36 388
463 36 394
464 36 917
465 35 100
466 35 354
467 35 989
468 35 159
469 35 252
470 35 230
471 35 686
472 35 202
473 34 173
474 34 321
475 34 420
476 34 262
477 34 518
478 34 914
479 33 511
480 32 866
481 32 448
482 32 475
483 32 148
484 32 844
485 32 152
486 32 902
487 32 889
488 31 204
489 31 576
490 31 931
491 31 831
492 31 423
493 30 172
494 30 449
495 30 92
496 30 77
497 30 916
498 30 485
499 30 972
500 30 229
